(set-info :smt-lib-version 2.6)
(set-logic QF_NRA)
(set-info :source |
Generated by: Ali K. Uncu, Matthew England, and James H. Davenport
Generated on: 2022-01-06

Generator: SUMCracker-ProveInequality function by Manuel Kauers ("https://www3.risc.jku.at/research/combinat/software/ergosum/RISC/SumCracker.html")
Translated to SMT-Lib by Maple SMTLIB package.

Application: CAD calls of SUMCracker-ProveInequality to prove 
"A Generalization of a Monthly Problem" in MAA Amer Math Monthly vol 125.
(https://www.tandfonline.com/doi/full/10.1080/00029890.2018.1460976)

This call introduces the x_i^k term and proves that as k gets larger the sums gets larger.
|)
(set-info :license "https://creativecommons.org/licenses/by/4.0/")
(set-info :status unsat)
(set-info :category "industrial")

(declare-fun V1 () Real)
(declare-fun V2 () Real)
(declare-fun V3 () Real)
(declare-fun V4 () Real)
(declare-fun V5 () Real)
(assert (and (= V4 V3) (= (+ V2 V4) (+ 1 V3)) (< 0 V1) (< 0 V2) (<= 1 V3) (<= 0 V3) (<= 0 V5) (< (+ (* V2 V2 V2) (* (* V2 V2) (- 2)) (* V2 2) V5) 1)))
(check-sat)
(exit)



























